************************************************************************
file with basedata            : mm53_.bas
initial value random generator: 1907935190
************************************************************************
projects                      :  1
jobs (incl. supersource/sink ):  12
horizon                       :  70
RESOURCES
  - renewable                 :  2   R
  - nonrenewable              :  2   N
  - doubly constrained        :  0   D
************************************************************************
PROJECT INFORMATION:
pronr.  #jobs rel.date duedate tardcost  MPM-Time
    1     10      0        9        9        9
************************************************************************
PRECEDENCE RELATIONS:
jobnr.    #modes  #successors   successors
   0        1          3           1   2   3
   1        3          2           4   5
   2        3          2           4   9
   3        3          1           8
   4        3          2           6  10
   5        3          3           6   7   9
   6        3          1           8
   7        3          1          10
   8        3          1          11
   9        3          1          11
  10        3          1          11
  11        1          0        
************************************************************************
REQUESTS/DURATIONS:
jobnr. mode duration  R 1  R 2  R 3  R 4  E(W 1)  E(W 2)
------------------------------------------------------------------------
  0      1     0       0    0    0    0     0       0
  1      1     1       6   10    3    7    16      10
  2      1     3       8    5    7    7    39      42
  3      1     1       3    9    7    9    12      16
  4      1     2       6   10    8    6    32      28
  5      1     1       6   10    8   10    16      18
  6      1     1       6    6    3    9    12      12
  7      1     4      10    7    5    5    68      40
  8      1     3       6    7    9    6    39      45
  9      1     1      10    9    4    7    19      11
 10      1     2      10    2    7    5    24      24
 11      1     0       0    0    0    0     0       0
************************************************************************
RESOURCEAVAILABILITIES:
  R 1  R 2
   42   98
************************************************************************
RESOURCE LIMITS:
jobnr.  l(R 1)  u(R 1)  l(R 2)  u(R 2)
------------------------------------------------------------------------
  0        0       0       0       0
  1        8      16       6      10
  2        7      13       8      14
  3        7      12       9      16
  4        8      16       7      14
  5        8      16       9      18
  6        6      12       7      12
  7        9      17       6      10
  8        7      13       8      15
  9       10      19       6      11
 10        6      12       7      12
 11        0       0       0       0
************************************************************************
SCENARIOS:
------------------------------------------------------------------------
RESOURCE k = 1
s = 1: (0, 15, 30, 13, 39, 11, 10, 100, 31, 24, 25, 0)
s = 2: (0, 17, 35, 8, 27, 15, 21, 74, 49, 15, 27, 0)
s = 3: (0, 20, 38, 14, 49, 28, 12, 101, 33, 17, 31, 0)
s = 4: (0, 13, 35, 8, 36, 28, 19, 120, 57, 18, 20, 0)
s = 5: (0, 20, 42, 11, 23, 20, 16, 45, 26, 17, 24, 0)
s = 6: (0, 24, 47, 13, 27, 16, 10, 41, 27, 20, 24, 0)
s = 7: (0, 23, 46, 12, 33, 18, 21, 96, 23, 28, 21, 0)
s = 8: (0, 17, 45, 11, 34, 11, 12, 54, 25, 14, 25, 0)
s = 9: (0, 18, 40, 11, 43, 12, 10, 98, 50, 24, 34, 0)
s = 10: (0, 15, 34, 10, 21, 15, 21, 54, 45, 20, 22, 0)
s = 11: (0, 13, 31, 9, 36, 18, 9, 74, 40, 17, 30, 0)
s = 12: (0, 15, 32, 10, 24, 17, 15, 52, 33, 11, 16, 0)
s = 13: (0, 13, 39, 10, 24, 19, 17, 50, 36, 20, 19, 0)
s = 14: (0, 11, 32, 9, 39, 21, 15, 41, 21, 12, 24, 0)
s = 15: (0, 13, 23, 14, 26, 15, 11, 72, 31, 15, 15, 0)
s = 16: (0, 23, 63, 13, 47, 11, 13, 49, 37, 13, 26, 0)
s = 17: (0, 14, 41, 13, 32, 23, 23, 70, 59, 20, 29, 0)
s = 18: (0, 16, 32, 11, 42, 20, 13, 80, 35, 18, 21, 0)
s = 19: (0, 11, 22, 14, 25, 17, 21, 62, 53, 26, 34, 0)
s = 20: (0, 20, 39, 17, 31, 19, 10, 110, 52, 22, 30, 0)
s = 21: (0, 20, 50, 11, 33, 21, 16, 80, 43, 12, 18, 0)
s = 22: (0, 24, 28, 8, 38, 15, 8, 79, 34, 23, 17, 0)
s = 23: (0, 13, 40, 9, 28, 19, 16, 74, 26, 14, 26, 0)
s = 24: (0, 9, 32, 8, 32, 13, 7, 84, 32, 17, 37, 0)
s = 25: (0, 13, 48, 14, 24, 9, 18, 67, 38, 23, 16, 0)
s = 26: (0, 16, 64, 18, 36, 16, 12, 69, 28, 17, 31, 0)
s = 27: (0, 18, 26, 14, 51, 17, 9, 70, 50, 13, 17, 0)
s = 28: (0, 28, 71, 13, 42, 18, 15, 65, 47, 17, 34, 0)
s = 29: (0, 12, 37, 13, 37, 24, 12, 110, 25, 23, 25, 0)
s = 30: (0, 19, 27, 9, 44, 24, 14, 99, 33, 24, 17, 0)
s = 31: (0, 20, 23, 12, 33, 11, 14, 79, 34, 15, 16, 0)
s = 32: (0, 17, 26, 15, 33, 17, 10, 63, 48, 32, 18, 0)
s = 33: (0, 11, 35, 10, 42, 16, 10, 50, 34, 12, 31, 0)
s = 34: (0, 12, 40, 12, 23, 15, 8, 49, 21, 23, 17, 0)
s = 35: (0, 17, 44, 13, 53, 17, 20, 41, 35, 17, 24, 0)
s = 36: (0, 16, 57, 20, 47, 15, 16, 81, 60, 12, 35, 0)
s = 37: (0, 16, 39, 11, 32, 25, 18, 72, 44, 19, 13, 0)
s = 38: (0, 17, 32, 12, 43, 17, 14, 81, 25, 16, 21, 0)
s = 39: (0, 24, 41, 12, 38, 18, 14, 62, 53, 14, 34, 0)
s = 40: (0, 13, 21, 15, 28, 23, 12, 79, 43, 13, 17, 0)
s = 41: (0, 11, 20, 9, 38, 16, 11, 55, 28, 20, 23, 0)
s = 42: (0, 18, 23, 14, 52, 23, 14, 79, 25, 12, 26, 0)
s = 43: (0, 17, 27, 14, 19, 18, 14, 52, 23, 17, 15, 0)
s = 44: (0, 11, 53, 11, 21, 32, 16, 62, 51, 16, 29, 0)
s = 45: (0, 14, 36, 15, 39, 11, 9, 57, 46, 17, 33, 0)
s = 46: (0, 20, 30, 20, 23, 13, 12, 40, 44, 13, 24, 0)
s = 47: (0, 19, 29, 12, 48, 16, 14, 66, 46, 13, 31, 0)
s = 48: (0, 21, 46, 12, 22, 26, 12, 102, 41, 11, 22, 0)
s = 49: (0, 17, 37, 10, 34, 14, 7, 63, 50, 24, 25, 0)
s = 50: (0, 23, 31, 12, 29, 15, 12, 80, 25, 20, 23, 0)
s = 51: (0, 26, 40, 16, 28, 17, 8, 59, 47, 11, 41, 0)
s = 52: (0, 19, 47, 17, 27, 23, 20, 102, 68, 26, 21, 0)
s = 53: (0, 23, 45, 14, 25, 16, 11, 62, 30, 26, 27, 0)
s = 54: (0, 15, 29, 17, 40, 12, 10, 97, 28, 23, 28, 0)
s = 55: (0, 12, 33, 12, 43, 15, 9, 108, 56, 12, 14, 0)
s = 56: (0, 25, 42, 12, 23, 24, 9, 49, 52, 22, 15, 0)
s = 57: (0, 19, 34, 9, 18, 26, 8, 93, 30, 19, 27, 0)
s = 58: (0, 30, 30, 12, 34, 13, 17, 95, 33, 18, 24, 0)
s = 59: (0, 19, 26, 10, 25, 12, 10, 92, 40, 21, 19, 0)
s = 60: (0, 25, 60, 10, 40, 14, 19, 55, 42, 16, 17, 0)
s = 61: (0, 15, 40, 17, 33, 22, 14, 53, 31, 16, 31, 0)
s = 62: (0, 11, 27, 9, 46, 20, 15, 110, 36, 17, 18, 0)
s = 63: (0, 13, 24, 15, 33, 18, 19, 70, 32, 20, 15, 0)
s = 64: (0, 16, 35, 10, 49, 17, 10, 54, 46, 17, 17, 0)
s = 65: (0, 13, 33, 8, 33, 13, 15, 47, 36, 24, 18, 0)
s = 66: (0, 18, 31, 18, 43, 28, 12, 91, 33, 19, 23, 0)
s = 67: (0, 9, 55, 19, 34, 22, 13, 55, 55, 21, 20, 0)
s = 68: (0, 18, 34, 12, 38, 11, 14, 54, 47, 16, 27, 0)
s = 69: (0, 17, 40, 13, 31, 10, 9, 58, 46, 14, 33, 0)
s = 70: (0, 17, 30, 10, 20, 21, 11, 116, 39, 20, 37, 0)
s = 71: (0, 11, 26, 7, 34, 11, 8, 132, 31, 18, 27, 0)
s = 72: (0, 11, 42, 13, 40, 15, 12, 67, 30, 19, 31, 0)
s = 73: (0, 15, 46, 18, 40, 10, 11, 44, 49, 20, 37, 0)
s = 74: (0, 23, 23, 14, 21, 24, 9, 65, 42, 26, 24, 0)
s = 75: (0, 14, 35, 9, 29, 14, 7, 57, 41, 12, 25, 0)
s = 76: (0, 25, 29, 19, 29, 19, 8, 65, 34, 18, 25, 0)
s = 77: (0, 20, 37, 10, 41, 20, 14, 54, 25, 19, 20, 0)
s = 78: (0, 24, 32, 15, 47, 16, 15, 64, 51, 12, 28, 0)
s = 79: (0, 10, 28, 12, 36, 24, 14, 75, 59, 17, 32, 0)
s = 80: (0, 21, 26, 10, 42, 12, 18, 78, 25, 26, 19, 0)
s = 81: (0, 22, 45, 10, 32, 13, 18, 87, 37, 16, 28, 0)
s = 82: (0, 15, 35, 19, 40, 18, 12, 48, 35, 14, 23, 0)
s = 83: (0, 15, 34, 12, 24, 24, 10, 56, 33, 12, 18, 0)
s = 84: (0, 12, 48, 11, 51, 20, 15, 58, 44, 12, 26, 0)
s = 85: (0, 11, 40, 19, 48, 11, 14, 75, 37, 13, 23, 0)
s = 86: (0, 14, 48, 12, 38, 18, 10, 65, 64, 21, 36, 0)
s = 87: (0, 15, 35, 13, 32, 31, 14, 58, 33, 27, 18, 0)
s = 88: (0, 15, 34, 9, 31, 15, 20, 55, 45, 22, 37, 0)
s = 89: (0, 10, 29, 17, 33, 11, 12, 60, 35, 13, 30, 0)
s = 90: (0, 13, 24, 10, 36, 12, 10, 89, 35, 14, 31, 0)
s = 91: (0, 22, 56, 10, 50, 15, 10, 103, 36, 23, 21, 0)
s = 92: (0, 11, 50, 14, 55, 15, 16, 62, 58, 12, 18, 0)
s = 93: (0, 15, 33, 14, 36, 16, 10, 64, 27, 15, 22, 0)
s = 94: (0, 11, 30, 13, 29, 21, 15, 80, 27, 12, 31, 0)
s = 95: (0, 16, 37, 16, 50, 18, 11, 74, 47, 21, 34, 0)
s = 96: (0, 16, 26, 14, 34, 11, 15, 66, 38, 12, 27, 0)
s = 97: (0, 22, 24, 10, 55, 12, 12, 87, 44, 27, 19, 0)
s = 98: (0, 21, 29, 10, 38, 11, 9, 57, 33, 29, 33, 0)
s = 99: (0, 11, 38, 13, 20, 12, 15, 45, 42, 14, 21, 0)
s = 100: (0, 12, 66, 11, 22, 13, 10, 70, 35, 22, 19, 0)
s = 101: (0, 12, 38, 14, 44, 24, 10, 78, 31, 11, 14, 0)
s = 102: (0, 11, 35, 20, 27, 17, 16, 116, 25, 19, 34, 0)
s = 103: (0, 10, 44, 13, 37, 12, 9, 85, 26, 28, 16, 0)
s = 104: (0, 16, 24, 17, 38, 14, 10, 98, 25, 16, 33, 0)
s = 105: (0, 12, 32, 8, 30, 17, 16, 74, 34, 16, 22, 0)
s = 106: (0, 22, 35, 20, 42, 20, 10, 63, 57, 22, 18, 0)
s = 107: (0, 15, 39, 10, 39, 9, 14, 50, 34, 27, 25, 0)
s = 108: (0, 10, 52, 14, 34, 21, 15, 83, 58, 27, 21, 0)
s = 109: (0, 15, 48, 19, 28, 11, 9, 93, 45, 21, 18, 0)
s = 110: (0, 16, 38, 19, 22, 21, 13, 67, 57, 14, 35, 0)
s = 111: (0, 12, 37, 17, 38, 9, 13, 49, 29, 14, 19, 0)
s = 112: (0, 17, 41, 16, 24, 17, 10, 104, 32, 11, 15, 0)
s = 113: (0, 13, 31, 14, 20, 21, 8, 58, 31, 13, 25, 0)
s = 114: (0, 15, 36, 20, 28, 11, 16, 50, 46, 15, 19, 0)
s = 115: (0, 21, 31, 12, 48, 20, 17, 84, 46, 29, 24, 0)
s = 116: (0, 19, 47, 8, 44, 20, 8, 69, 58, 22, 27, 0)
s = 117: (0, 16, 48, 13, 28, 12, 10, 42, 28, 17, 23, 0)
s = 118: (0, 19, 67, 16, 36, 20, 11, 55, 50, 16, 29, 0)
s = 119: (0, 12, 56, 15, 47, 12, 12, 66, 30, 21, 28, 0)
s = 120: (0, 14, 54, 14, 46, 11, 11, 56, 47, 21, 20, 0)
s = 121: (0, 10, 46, 16, 42, 12, 12, 66, 32, 23, 22, 0)
s = 122: (0, 16, 54, 8, 26, 18, 13, 93, 44, 20, 24, 0)
s = 123: (0, 18, 35, 8, 18, 28, 16, 66, 35, 15, 43, 0)
s = 124: (0, 14, 35, 12, 28, 11, 17, 71, 28, 15, 42, 0)
s = 125: (0, 9, 45, 13, 27, 20, 12, 62, 51, 16, 17, 0)
s = 126: (0, 13, 43, 15, 40, 21, 14, 62, 34, 17, 27, 0)
s = 127: (0, 21, 56, 15, 21, 17, 10, 45, 34, 14, 31, 0)
s = 128: (0, 17, 30, 10, 36, 10, 12, 57, 37, 20, 23, 0)
s = 129: (0, 11, 63, 8, 24, 10, 12, 41, 37, 12, 19, 0)
s = 130: (0, 23, 36, 12, 27, 20, 14, 76, 47, 15, 23, 0)
s = 131: (0, 18, 24, 10, 37, 14, 12, 87, 26, 24, 24, 0)
s = 132: (0, 16, 40, 12, 33, 21, 14, 56, 38, 18, 13, 0)
s = 133: (0, 16, 22, 12, 26, 14, 10, 49, 61, 15, 42, 0)
s = 134: (0, 22, 35, 14, 24, 15, 15, 62, 47, 21, 15, 0)
s = 135: (0, 20, 38, 9, 18, 18, 12, 54, 67, 13, 27, 0)
s = 136: (0, 20, 42, 9, 51, 23, 14, 60, 41, 17, 25, 0)
s = 137: (0, 15, 45, 9, 46, 14, 14, 99, 26, 17, 25, 0)
s = 138: (0, 15, 25, 17, 31, 20, 18, 79, 34, 17, 25, 0)
s = 139: (0, 19, 54, 10, 45, 20, 8, 93, 29, 18, 23, 0)
s = 140: (0, 12, 33, 12, 25, 19, 12, 109, 50, 27, 23, 0)
s = 141: (0, 12, 44, 20, 53, 16, 14, 85, 35, 23, 36, 0)
s = 142: (0, 18, 35, 11, 39, 15, 9, 62, 38, 16, 24, 0)
s = 143: (0, 13, 29, 10, 33, 10, 13, 54, 30, 20, 28, 0)
s = 144: (0, 9, 48, 15, 41, 23, 10, 55, 31, 16, 25, 0)
s = 145: (0, 20, 35, 9, 22, 15, 18, 52, 51, 11, 14, 0)
s = 146: (0, 13, 34, 13, 32, 17, 9, 44, 26, 16, 31, 0)
s = 147: (0, 10, 30, 15, 36, 26, 12, 92, 69, 16, 20, 0)
s = 148: (0, 20, 40, 15, 32, 18, 8, 109, 54, 25, 26, 0)
s = 149: (0, 16, 44, 8, 27, 15, 14, 65, 47, 22, 28, 0)
s = 150: (0, 20, 40, 10, 29, 13, 10, 89, 62, 13, 40, 0)
s = 151: (0, 24, 34, 12, 45, 18, 11, 79, 56, 19, 21, 0)
s = 152: (0, 12, 46, 15, 30, 18, 12, 76, 50, 12, 14, 0)
s = 153: (0, 16, 32, 13, 56, 18, 14, 87, 32, 14, 34, 0)
s = 154: (0, 16, 54, 12, 23, 16, 11, 110, 51, 15, 32, 0)
s = 155: (0, 10, 27, 12, 37, 22, 10, 35, 30, 24, 20, 0)
s = 156: (0, 12, 51, 11, 23, 18, 10, 60, 34, 22, 13, 0)
s = 157: (0, 20, 61, 10, 27, 17, 10, 57, 47, 23, 28, 0)
s = 158: (0, 18, 69, 11, 36, 14, 15, 68, 55, 29, 27, 0)
s = 159: (0, 19, 33, 12, 36, 18, 13, 54, 40, 22, 23, 0)
s = 160: (0, 11, 32, 12, 40, 14, 9, 58, 49, 24, 29, 0)
s = 161: (0, 12, 35, 10, 34, 24, 16, 90, 60, 27, 24, 0)
s = 162: (0, 22, 23, 8, 24, 18, 13, 72, 51, 20, 23, 0)
s = 163: (0, 17, 51, 8, 36, 17, 15, 50, 26, 20, 32, 0)
s = 164: (0, 11, 41, 11, 35, 18, 19, 90, 35, 27, 24, 0)
s = 165: (0, 22, 22, 14, 38, 19, 13, 82, 44, 32, 22, 0)
s = 166: (0, 14, 46, 12, 24, 16, 8, 61, 44, 13, 22, 0)
s = 167: (0, 18, 35, 10, 29, 15, 19, 70, 49, 12, 26, 0)
s = 168: (0, 9, 26, 14, 38, 13, 10, 72, 30, 15, 17, 0)
s = 169: (0, 14, 62, 9, 41, 16, 12, 69, 30, 20, 33, 0)
s = 170: (0, 17, 35, 13, 45, 14, 8, 71, 28, 23, 26, 0)
s = 171: (0, 19, 43, 14, 30, 13, 12, 109, 49, 27, 19, 0)
s = 172: (0, 11, 33, 15, 48, 16, 12, 57, 46, 21, 38, 0)
s = 173: (0, 13, 60, 13, 21, 20, 19, 85, 28, 15, 20, 0)
s = 174: (0, 12, 41, 10, 36, 12, 19, 116, 63, 30, 25, 0)
s = 175: (0, 15, 27, 17, 18, 12, 18, 51, 37, 12, 17, 0)
s = 176: (0, 25, 55, 12, 23, 14, 10, 65, 46, 24, 24, 0)
s = 177: (0, 16, 31, 14, 31, 14, 15, 62, 46, 13, 37, 0)
s = 178: (0, 20, 41, 14, 35, 14, 8, 73, 28, 22, 14, 0)
s = 179: (0, 20, 24, 16, 29, 18, 16, 78, 33, 34, 25, 0)
s = 180: (0, 13, 36, 20, 22, 14, 10, 109, 25, 25, 35, 0)
s = 181: (0, 13, 27, 15, 43, 15, 10, 64, 60, 12, 25, 0)
s = 182: (0, 20, 40, 13, 31, 11, 19, 63, 38, 17, 21, 0)
s = 183: (0, 21, 39, 10, 41, 14, 18, 64, 42, 14, 23, 0)
s = 184: (0, 12, 27, 8, 26, 15, 18, 62, 35, 19, 26, 0)
s = 185: (0, 11, 24, 14, 35, 19, 10, 97, 48, 19, 30, 0)
s = 186: (0, 24, 30, 15, 33, 12, 14, 91, 47, 15, 21, 0)
s = 187: (0, 11, 54, 8, 24, 20, 8, 95, 23, 16, 20, 0)
s = 188: (0, 16, 37, 11, 46, 14, 17, 63, 47, 27, 32, 0)
s = 189: (0, 20, 60, 10, 30, 15, 10, 42, 39, 17, 22, 0)
s = 190: (0, 28, 39, 13, 33, 12, 20, 104, 47, 14, 23, 0)
s = 191: (0, 16, 47, 12, 21, 20, 10, 77, 45, 17, 16, 0)
s = 192: (0, 18, 33, 9, 30, 14, 15, 61, 42, 14, 23, 0)
s = 193: (0, 14, 48, 9, 34, 14, 19, 77, 50, 18, 14, 0)
s = 194: (0, 17, 57, 10, 43, 15, 9, 53, 36, 20, 30, 0)
s = 195: (0, 22, 33, 11, 32, 14, 12, 53, 46, 16, 15, 0)
s = 196: (0, 15, 32, 17, 42, 12, 12, 72, 26, 30, 25, 0)
s = 197: (0, 17, 31, 14, 44, 20, 11, 40, 51, 16, 26, 0)
s = 198: (0, 20, 41, 12, 23, 13, 13, 81, 66, 14, 20, 0)
s = 199: (0, 12, 57, 16, 54, 13, 16, 49, 22, 18, 35, 0)
s = 200: (0, 15, 28, 10, 30, 14, 13, 55, 24, 25, 14, 0)
------------------------------------------------------------------------
RESOURCE k = 2
s = 1: (0, 9, 32, 17, 34, 12, 10, 59, 35, 14, 25, 0)
s = 2: (0, 11, 37, 11, 24, 16, 21, 44, 56, 9, 27, 0)
s = 3: (0, 13, 41, 18, 43, 31, 12, 60, 38, 10, 31, 0)
s = 4: (0, 8, 38, 11, 32, 32, 19, 71, 66, 10, 20, 0)
s = 5: (0, 13, 45, 14, 21, 23, 16, 27, 30, 10, 24, 0)
s = 6: (0, 15, 50, 17, 24, 18, 10, 24, 31, 12, 24, 0)
s = 7: (0, 15, 50, 15, 29, 20, 21, 57, 27, 17, 21, 0)
s = 8: (0, 11, 48, 14, 30, 12, 12, 32, 29, 9, 25, 0)
s = 9: (0, 11, 43, 15, 38, 13, 10, 58, 58, 14, 34, 0)
s = 10: (0, 10, 37, 14, 18, 17, 21, 32, 52, 12, 22, 0)
s = 11: (0, 8, 34, 12, 31, 20, 9, 43, 46, 10, 30, 0)
s = 12: (0, 10, 34, 13, 21, 19, 15, 31, 38, 6, 16, 0)
s = 13: (0, 8, 42, 14, 21, 21, 17, 30, 42, 12, 19, 0)
s = 14: (0, 7, 34, 12, 34, 24, 15, 24, 24, 7, 24, 0)
s = 15: (0, 8, 25, 18, 23, 16, 11, 42, 36, 9, 15, 0)
s = 16: (0, 15, 68, 18, 41, 12, 13, 29, 42, 8, 26, 0)
s = 17: (0, 9, 44, 17, 28, 26, 23, 42, 68, 12, 29, 0)
s = 18: (0, 10, 35, 14, 36, 23, 13, 47, 41, 11, 21, 0)
s = 19: (0, 7, 24, 18, 22, 19, 21, 37, 61, 15, 34, 0)
s = 20: (0, 13, 42, 22, 27, 22, 10, 65, 60, 13, 30, 0)
s = 21: (0, 12, 54, 15, 29, 24, 16, 47, 50, 7, 18, 0)
s = 22: (0, 15, 30, 11, 33, 16, 8, 47, 39, 14, 17, 0)
s = 23: (0, 8, 43, 12, 25, 22, 16, 44, 30, 9, 26, 0)
s = 24: (0, 6, 35, 10, 28, 15, 7, 50, 37, 10, 37, 0)
s = 25: (0, 8, 51, 18, 21, 11, 18, 39, 43, 14, 16, 0)
s = 26: (0, 10, 68, 24, 32, 18, 12, 41, 32, 10, 31, 0)
s = 27: (0, 12, 28, 18, 45, 19, 9, 42, 58, 8, 17, 0)
s = 28: (0, 18, 76, 17, 37, 21, 15, 38, 54, 10, 34, 0)
s = 29: (0, 8, 40, 17, 33, 26, 12, 65, 29, 13, 25, 0)
s = 30: (0, 12, 29, 12, 39, 27, 14, 58, 38, 14, 17, 0)
s = 31: (0, 13, 25, 15, 29, 12, 14, 47, 40, 9, 16, 0)
s = 32: (0, 11, 28, 20, 29, 19, 10, 37, 55, 19, 18, 0)
s = 33: (0, 7, 38, 13, 37, 18, 10, 29, 40, 7, 31, 0)
s = 34: (0, 8, 43, 15, 21, 17, 8, 29, 24, 14, 17, 0)
s = 35: (0, 11, 47, 18, 46, 20, 20, 24, 40, 10, 24, 0)
s = 36: (0, 10, 61, 27, 42, 17, 16, 48, 69, 7, 35, 0)
s = 37: (0, 10, 42, 14, 28, 28, 18, 43, 51, 11, 13, 0)
s = 38: (0, 11, 34, 16, 37, 19, 14, 48, 29, 9, 21, 0)
s = 39: (0, 15, 44, 16, 33, 20, 14, 36, 61, 8, 34, 0)
s = 40: (0, 8, 23, 20, 25, 26, 12, 47, 50, 8, 17, 0)
s = 41: (0, 7, 22, 12, 33, 18, 11, 32, 32, 12, 23, 0)
s = 42: (0, 11, 25, 19, 45, 26, 14, 47, 29, 7, 26, 0)
s = 43: (0, 11, 29, 18, 17, 21, 14, 31, 26, 10, 15, 0)
s = 44: (0, 7, 57, 14, 18, 36, 16, 36, 59, 9, 29, 0)
s = 45: (0, 9, 39, 20, 34, 12, 9, 34, 53, 10, 33, 0)
s = 46: (0, 12, 32, 26, 20, 15, 12, 24, 50, 8, 24, 0)
s = 47: (0, 12, 31, 16, 42, 18, 14, 39, 53, 8, 31, 0)
s = 48: (0, 13, 49, 15, 20, 29, 12, 60, 47, 6, 22, 0)
s = 49: (0, 11, 40, 13, 30, 16, 7, 37, 57, 14, 25, 0)
s = 50: (0, 15, 33, 16, 26, 17, 12, 47, 29, 12, 23, 0)
s = 51: (0, 16, 43, 21, 24, 19, 8, 35, 54, 7, 41, 0)
s = 52: (0, 12, 50, 22, 24, 26, 20, 60, 78, 16, 21, 0)
s = 53: (0, 15, 48, 18, 22, 18, 11, 37, 35, 15, 27, 0)
s = 54: (0, 9, 31, 23, 35, 14, 10, 57, 32, 14, 28, 0)
s = 55: (0, 8, 35, 16, 38, 17, 9, 64, 64, 7, 14, 0)
s = 56: (0, 16, 45, 16, 20, 27, 9, 29, 60, 13, 15, 0)
s = 57: (0, 12, 37, 11, 16, 29, 8, 55, 35, 11, 27, 0)
s = 58: (0, 19, 33, 16, 30, 14, 17, 56, 38, 11, 24, 0)
s = 59: (0, 12, 28, 14, 22, 14, 10, 54, 46, 12, 19, 0)
s = 60: (0, 16, 64, 13, 35, 15, 19, 33, 48, 9, 17, 0)
s = 61: (0, 10, 43, 23, 29, 25, 14, 31, 36, 9, 31, 0)
s = 62: (0, 7, 29, 11, 40, 22, 15, 65, 41, 10, 18, 0)
s = 63: (0, 9, 26, 19, 29, 20, 19, 41, 37, 12, 15, 0)
s = 64: (0, 10, 37, 13, 43, 19, 10, 32, 52, 10, 17, 0)
s = 65: (0, 9, 36, 11, 29, 15, 15, 28, 42, 14, 18, 0)
s = 66: (0, 12, 33, 24, 38, 32, 12, 53, 38, 11, 23, 0)
s = 67: (0, 6, 59, 25, 29, 25, 13, 33, 64, 13, 20, 0)
s = 68: (0, 11, 37, 16, 33, 12, 14, 32, 54, 10, 27, 0)
s = 69: (0, 11, 43, 17, 28, 11, 9, 34, 53, 9, 33, 0)
s = 70: (0, 11, 32, 13, 18, 23, 11, 69, 45, 12, 37, 0)
s = 71: (0, 7, 28, 9, 30, 12, 8, 78, 36, 11, 27, 0)
s = 72: (0, 7, 45, 17, 35, 17, 12, 40, 34, 11, 31, 0)
s = 73: (0, 9, 50, 24, 35, 11, 11, 26, 57, 12, 37, 0)
s = 74: (0, 15, 24, 18, 18, 27, 9, 39, 48, 16, 24, 0)
s = 75: (0, 9, 38, 12, 25, 15, 7, 34, 48, 7, 25, 0)
s = 76: (0, 16, 31, 25, 26, 21, 8, 38, 40, 11, 25, 0)
s = 77: (0, 13, 40, 13, 36, 23, 14, 32, 29, 11, 20, 0)
s = 78: (0, 15, 34, 20, 41, 18, 15, 38, 58, 7, 28, 0)
s = 79: (0, 7, 30, 16, 31, 27, 14, 45, 68, 10, 32, 0)
s = 80: (0, 13, 28, 13, 37, 14, 18, 46, 28, 15, 19, 0)
s = 81: (0, 14, 49, 13, 28, 15, 18, 52, 42, 9, 28, 0)
s = 82: (0, 9, 38, 26, 35, 20, 12, 28, 40, 8, 23, 0)
s = 83: (0, 9, 37, 15, 21, 27, 10, 33, 38, 7, 18, 0)
s = 84: (0, 8, 51, 14, 45, 23, 15, 34, 50, 7, 26, 0)
s = 85: (0, 7, 43, 25, 42, 12, 14, 44, 43, 8, 23, 0)
s = 86: (0, 9, 51, 15, 33, 21, 10, 38, 73, 12, 36, 0)
s = 87: (0, 10, 38, 18, 28, 35, 14, 35, 38, 16, 18, 0)
s = 88: (0, 10, 37, 12, 27, 17, 20, 32, 52, 13, 37, 0)
s = 89: (0, 6, 31, 22, 29, 12, 12, 36, 41, 8, 30, 0)
s = 90: (0, 8, 25, 13, 31, 13, 10, 53, 40, 9, 31, 0)
s = 91: (0, 14, 60, 13, 44, 17, 10, 61, 41, 13, 21, 0)
s = 92: (0, 7, 53, 19, 48, 17, 16, 37, 67, 7, 18, 0)
s = 93: (0, 10, 35, 19, 32, 18, 10, 38, 31, 9, 22, 0)
s = 94: (0, 7, 32, 17, 26, 24, 15, 47, 31, 7, 31, 0)
s = 95: (0, 10, 40, 21, 43, 20, 11, 43, 54, 12, 34, 0)
s = 96: (0, 10, 28, 18, 30, 12, 15, 39, 44, 7, 27, 0)
s = 97: (0, 14, 25, 14, 48, 14, 12, 52, 50, 16, 19, 0)
s = 98: (0, 14, 31, 13, 33, 13, 9, 34, 38, 17, 33, 0)
s = 99: (0, 7, 41, 17, 17, 13, 15, 27, 49, 8, 21, 0)
s = 100: (0, 8, 71, 14, 19, 14, 10, 41, 40, 13, 19, 0)
s = 101: (0, 8, 41, 18, 39, 27, 10, 46, 36, 7, 14, 0)
s = 102: (0, 7, 37, 27, 24, 19, 16, 68, 29, 11, 34, 0)
s = 103: (0, 7, 47, 17, 32, 13, 9, 50, 30, 16, 16, 0)
s = 104: (0, 10, 26, 23, 33, 15, 10, 58, 29, 10, 33, 0)
s = 105: (0, 7, 34, 11, 26, 20, 16, 44, 39, 9, 22, 0)
s = 106: (0, 14, 38, 26, 37, 23, 10, 37, 66, 13, 18, 0)
s = 107: (0, 9, 41, 13, 34, 10, 14, 30, 40, 16, 25, 0)
s = 108: (0, 6, 56, 18, 30, 24, 15, 49, 66, 16, 21, 0)
s = 109: (0, 10, 52, 25, 25, 13, 9, 55, 52, 13, 18, 0)
s = 110: (0, 10, 41, 25, 19, 24, 13, 40, 65, 8, 35, 0)
s = 111: (0, 8, 40, 23, 34, 10, 13, 29, 34, 8, 19, 0)
s = 112: (0, 11, 44, 21, 21, 19, 10, 62, 37, 6, 15, 0)
s = 113: (0, 8, 34, 19, 18, 23, 8, 34, 35, 8, 25, 0)
s = 114: (0, 10, 39, 26, 25, 12, 16, 30, 53, 9, 19, 0)
s = 115: (0, 13, 33, 16, 42, 22, 17, 50, 53, 17, 24, 0)
s = 116: (0, 12, 51, 11, 38, 22, 8, 41, 66, 13, 27, 0)
s = 117: (0, 10, 52, 17, 24, 14, 10, 25, 32, 10, 23, 0)
s = 118: (0, 12, 72, 21, 32, 22, 11, 32, 58, 9, 29, 0)
s = 119: (0, 8, 60, 19, 42, 13, 12, 39, 35, 12, 28, 0)
s = 120: (0, 9, 58, 19, 41, 12, 11, 33, 54, 12, 20, 0)
s = 121: (0, 6, 50, 21, 37, 14, 12, 39, 37, 14, 22, 0)
s = 122: (0, 10, 58, 10, 23, 20, 13, 55, 50, 12, 24, 0)
s = 123: (0, 12, 37, 10, 16, 31, 16, 39, 40, 9, 43, 0)
s = 124: (0, 9, 38, 16, 24, 12, 17, 42, 32, 9, 42, 0)
s = 125: (0, 6, 48, 17, 23, 23, 12, 37, 59, 9, 17, 0)
s = 126: (0, 8, 47, 20, 35, 23, 14, 37, 39, 10, 27, 0)
s = 127: (0, 13, 60, 19, 19, 19, 10, 27, 39, 8, 31, 0)
s = 128: (0, 11, 32, 14, 31, 11, 12, 34, 42, 12, 23, 0)
s = 129: (0, 7, 68, 11, 21, 11, 12, 25, 43, 7, 19, 0)
s = 130: (0, 14, 39, 16, 23, 23, 14, 45, 54, 9, 23, 0)
s = 131: (0, 11, 26, 13, 32, 15, 12, 51, 30, 14, 24, 0)
s = 132: (0, 10, 43, 16, 29, 24, 14, 33, 44, 10, 13, 0)
s = 133: (0, 10, 24, 15, 23, 16, 10, 29, 71, 9, 42, 0)
s = 134: (0, 14, 37, 18, 21, 17, 15, 36, 54, 12, 15, 0)
s = 135: (0, 13, 41, 12, 16, 20, 12, 32, 77, 8, 27, 0)
s = 136: (0, 13, 45, 12, 45, 26, 14, 36, 47, 10, 25, 0)
s = 137: (0, 10, 48, 12, 40, 16, 14, 58, 30, 10, 25, 0)
s = 138: (0, 10, 27, 23, 27, 23, 18, 47, 40, 10, 25, 0)
s = 139: (0, 12, 58, 13, 39, 22, 8, 55, 33, 11, 23, 0)
s = 140: (0, 8, 36, 15, 22, 21, 12, 64, 58, 16, 23, 0)
s = 141: (0, 8, 47, 27, 46, 18, 14, 50, 40, 14, 36, 0)
s = 142: (0, 12, 38, 14, 34, 16, 9, 37, 44, 9, 24, 0)
s = 143: (0, 8, 32, 13, 29, 11, 13, 32, 34, 12, 28, 0)
s = 144: (0, 6, 52, 20, 36, 26, 10, 33, 35, 9, 25, 0)
s = 145: (0, 13, 37, 11, 19, 17, 18, 31, 59, 7, 14, 0)
s = 146: (0, 9, 37, 17, 28, 19, 9, 26, 30, 9, 31, 0)
s = 147: (0, 6, 32, 19, 32, 29, 12, 55, 80, 9, 20, 0)
s = 148: (0, 13, 43, 20, 28, 20, 8, 64, 62, 15, 26, 0)
s = 149: (0, 10, 47, 11, 24, 17, 14, 38, 54, 13, 28, 0)
s = 150: (0, 13, 43, 13, 26, 15, 10, 52, 72, 8, 40, 0)
s = 151: (0, 15, 37, 16, 39, 20, 11, 47, 64, 11, 21, 0)
s = 152: (0, 8, 49, 20, 27, 21, 12, 45, 57, 7, 14, 0)
s = 153: (0, 10, 35, 18, 49, 20, 14, 51, 37, 9, 34, 0)
s = 154: (0, 10, 58, 16, 20, 17, 11, 65, 59, 9, 32, 0)
s = 155: (0, 6, 29, 16, 32, 24, 10, 21, 35, 14, 20, 0)
s = 156: (0, 8, 55, 14, 21, 20, 10, 35, 39, 13, 13, 0)
s = 157: (0, 13, 65, 13, 24, 19, 10, 33, 54, 14, 28, 0)
s = 158: (0, 11, 74, 15, 31, 15, 15, 40, 64, 17, 27, 0)
s = 159: (0, 12, 36, 15, 32, 20, 13, 32, 46, 13, 23, 0)
s = 160: (0, 7, 34, 15, 35, 16, 9, 35, 57, 14, 29, 0)
s = 161: (0, 8, 38, 14, 30, 27, 16, 53, 69, 16, 24, 0)
s = 162: (0, 14, 25, 11, 21, 21, 13, 42, 59, 12, 23, 0)
s = 163: (0, 11, 55, 11, 31, 19, 15, 30, 29, 12, 32, 0)
s = 164: (0, 7, 44, 14, 31, 20, 19, 53, 40, 16, 24, 0)
s = 165: (0, 14, 23, 18, 33, 21, 13, 49, 51, 19, 22, 0)
s = 166: (0, 9, 50, 15, 21, 18, 8, 36, 51, 8, 22, 0)
s = 167: (0, 12, 37, 13, 25, 17, 19, 41, 57, 7, 26, 0)
s = 168: (0, 6, 28, 18, 33, 15, 10, 43, 35, 9, 17, 0)
s = 169: (0, 9, 67, 12, 36, 18, 12, 41, 34, 12, 33, 0)
s = 170: (0, 11, 38, 17, 40, 16, 8, 42, 33, 14, 26, 0)
s = 171: (0, 12, 46, 18, 26, 15, 12, 64, 57, 16, 19, 0)
s = 172: (0, 7, 36, 20, 42, 18, 12, 34, 53, 12, 38, 0)
s = 173: (0, 8, 64, 17, 19, 22, 19, 50, 32, 9, 20, 0)
s = 174: (0, 7, 44, 13, 31, 13, 19, 69, 73, 18, 25, 0)
s = 175: (0, 10, 29, 22, 16, 14, 18, 30, 42, 7, 17, 0)
s = 176: (0, 16, 59, 16, 20, 16, 10, 39, 53, 14, 24, 0)
s = 177: (0, 10, 34, 18, 27, 16, 15, 37, 53, 8, 37, 0)
s = 178: (0, 13, 44, 19, 31, 16, 8, 43, 32, 13, 14, 0)
s = 179: (0, 12, 26, 21, 26, 20, 16, 46, 38, 20, 25, 0)
s = 180: (0, 8, 39, 27, 19, 16, 10, 65, 29, 15, 35, 0)
s = 181: (0, 8, 29, 19, 38, 16, 10, 38, 69, 7, 25, 0)
s = 182: (0, 12, 43, 18, 27, 13, 19, 37, 43, 10, 21, 0)
s = 183: (0, 14, 42, 14, 36, 15, 18, 38, 49, 8, 23, 0)
s = 184: (0, 7, 29, 11, 23, 16, 18, 37, 41, 11, 26, 0)
s = 185: (0, 7, 26, 19, 31, 21, 10, 57, 55, 11, 30, 0)
s = 186: (0, 15, 33, 20, 29, 13, 14, 54, 54, 9, 21, 0)
s = 187: (0, 7, 58, 10, 21, 23, 8, 56, 26, 10, 20, 0)
s = 188: (0, 10, 39, 14, 40, 15, 17, 37, 54, 16, 32, 0)
s = 189: (0, 13, 65, 14, 27, 17, 10, 25, 45, 10, 22, 0)
s = 190: (0, 17, 42, 17, 29, 13, 20, 61, 54, 8, 23, 0)
s = 191: (0, 10, 51, 15, 18, 22, 10, 45, 52, 10, 16, 0)
s = 192: (0, 12, 35, 12, 26, 16, 15, 36, 49, 8, 23, 0)
s = 193: (0, 9, 52, 12, 29, 16, 19, 45, 57, 10, 14, 0)
s = 194: (0, 11, 61, 13, 38, 17, 9, 32, 41, 12, 30, 0)
s = 195: (0, 14, 36, 14, 28, 15, 12, 31, 53, 9, 15, 0)
s = 196: (0, 9, 34, 23, 37, 13, 12, 42, 30, 17, 25, 0)
s = 197: (0, 11, 33, 19, 39, 22, 11, 24, 59, 9, 26, 0)
s = 198: (0, 12, 44, 16, 20, 14, 13, 48, 76, 8, 20, 0)
s = 199: (0, 8, 61, 21, 47, 15, 16, 29, 26, 11, 35, 0)
s = 200: (0, 10, 30, 13, 27, 16, 13, 32, 28, 14, 14, 0)
************************************************************************
ES/LS-VALUES:
jobnr.   ES(i)    LS(i)
------------------------------------------------------------------------
  0        0        0
  1        0       54
  2        0       52
  3        0       62
  4        5       58
  5        1       56
  6        8       62
  7        3       58
  8        9       64
  9        5       68
 10       10       66
 11       14       70
************************************************************************
BIG-M-VALUES:
M1 = 28, M2 = 210
************************************************************************
